* ENCODING=ISO-8859-1
NAME          CPLEX
ROWS
 N  obj1    
 G  c1      
 G  c2      
 G  c3      
 G  c4      
 G  c5      
 G  c6      
 G  c7      
 G  c8      
 G  c9      
 G  c10     
 G  c11     
 G  c12     
 G  c13     
 G  c14     
 G  c15     
 G  c16     
 G  c17     
 G  c18     
 G  c19     
 G  c20     
 G  c21     
 G  c22     
 G  c23     
 G  c24     
 G  c25     
 G  c26     
 G  c27     
 G  c28     
 G  c29     
 G  c30     
 G  c31     
 G  c32     
 G  c33     
 G  c34     
 G  c35     
 G  c36     
 G  c37     
 G  c38     
 G  c39     
 G  c40     
 G  c41     
 G  c42     
 G  c43     
 G  c44     
 G  c45     
 G  c46     
 G  c47     
 G  c48     
 G  c49     
 G  c50     
COLUMNS
    MARK0000  'MARKER'                 'INTORG'
    x1        obj1                            1
    x1        c12                           538
    x1        c16                           134
    x1        c23                           797
    x1        c24                           416
    x1        c34                           102
    x1        c46                           197
    x1        c47                           314
    x2        obj1                            1
    x2        c10                           970
    x2        c26                           715
    x2        c48                           240
    x3        obj1                            1
    x3        c11                           846
    x3        c21                           885
    x3        c22                           953
    x3        c31                           543
    x3        c41                           624
    x4        obj1                            1
    x4        c2                            477
    x4        c9                            365
    x4        c11                           490
    x4        c19                           922
    x4        c27                           582
    x4        c28                           379
    x4        c45                           912
    x5        obj1                            1
    x5        c7                            737
    x5        c8                            382
    x5        c22                           795
    x5        c38                           360
    x5        c41                           660
    x6        obj1                            1
    x6        c22                           182
    x6        c35                           142
    x7        obj1                            1
    x7        c46                           763
    x7        c49                           700
    x8        obj1                            1
    x8        c12                           301
    x8        c44                           617
    x8        c45                           116
    x9        obj1                            1
    x9        c5                            729
    x9        c42                           438
    x10       obj1                            1
    x10       c15                           934
    x10       c16                           380
    x10       c25                           695
    x10       c39                           754
    x11       obj1                            1
    x11       c4                            769
    x11       c10                           610
    x11       c20                           498
    x11       c32                           408
    x11       c47                           364
    x12       obj1                            1
    x12       c32                           365
    x13       obj1                            1
    x13       c23                           276
    x13       c40                           554
    x13       c44                           340
    x13       c46                           118
    x14       obj1                            1
    x14       c3                            621
    x14       c9                            194
    x14       c11                           420
    x14       c15                           683
    x14       c18                           260
    x14       c36                           504
    x14       c38                           826
    x14       c41                           389
    x14       c47                           520
    x14       c48                           923
    x15       obj1                            1
    x15       c1                            362
    x15       c5                            445
    x15       c48                           147
    x16       obj1                            1
    x16       c16                           427
    x16       c31                           529
    x17       obj1                            1
    x17       c4                            136
    x17       c14                           839
    x17       c20                           364
    x17       c37                           671
    x17       c39                           454
    x17       c43                           217
    x17       c49                           409
    x17       c50                           989
    x18       obj1                            1
    x18       c17                           779
    x18       c34                           238
    x18       c41                           383
    x18       c47                           977
    x19       obj1                            1
    x19       c2                            706
    x19       c4                            514
    x19       c16                           729
    x19       c18                           426
    x19       c46                           126
    x20       obj1                            1
    x20       c42                           241
    x21       obj1                            1
    x22       obj1                            1
    x22       c28                           594
    x22       c43                           320
    x23       obj1                            1
    x23       c2                            668
    x23       c3                            875
    x23       c6                            112
    x23       c7                            246
    x23       c17                           731
    x23       c24                           850
    x23       c26                           566
    x23       c37                           387
    x24       obj1                            1
    x24       c1                            230
    x24       c10                           961
    x24       c24                           821
    x24       c25                           459
    x24       c26                           869
    x24       c30                           456
    x24       c41                           183
    x25       obj1                            1
    x25       c15                           318
    x25       c23                           737
    x25       c26                           240
    x25       c47                           895
    x26       obj1                            1
    x26       c3                            997
    x26       c10                           823
    x26       c31                           779
    x26       c36                           157
    x26       c40                           855
    x26       c44                           248
    x26       c49                           325
    x27       obj1                            1
    x27       c13                           518
    x27       c16                           403
    x28       obj1                            1
    x28       c21                           110
    x28       c33                           153
    x28       c35                           277
    x28       c40                           700
    x28       c46                           194
    x28       c48                           922
    x28       c50                           211
    x29       obj1                            1
    x29       c7                            769
    x29       c22                           566
    x29       c28                           440
    x29       c43                           823
    x29       c46                           135
    x30       obj1                            1
    x30       c48                           619
    x31       obj1                            1
    x31       c24                           380
    x31       c26                           787
    x31       c35                           410
    x31       c50                           594
    x32       obj1                            1
    x32       c4                            429
    x32       c6                            891
    x32       c15                           356
    x32       c18                           363
    x32       c19                           871
    x32       c29                           537
    x32       c41                           862
    x32       c43                           599
    x33       obj1                            1
    x33       c8                            404
    x33       c30                           468
    x33       c42                           787
    x34       obj1                            1
    x34       c32                           744
    x34       c35                           347
    x34       c42                           843
    x34       c44                           712
    x35       obj1                            1
    x35       c4                            783
    x35       c14                           104
    x35       c23                           898
    x35       c25                           899
    x35       c26                           451
    x35       c29                           263
    x35       c31                           918
    x35       c33                           794
    x35       c38                           995
    x35       c40                           231
    x35       c43                           218
    x36       obj1                            1
    x36       c11                           512
    x36       c20                           915
    x36       c21                           699
    x36       c29                           988
    x36       c32                           320
    x36       c42                           596
    x37       obj1                            1
    x37       c5                            187
    x37       c10                           981
    x37       c13                           317
    x37       c15                           863
    x37       c32                           650
    x37       c33                           882
    x37       c34                           972
    x37       c48                           225
    x37       c50                           475
    x38       obj1                            1
    x38       c4                            781
    x38       c6                            962
    x38       c29                           737
    x38       c34                           847
    x38       c39                           906
    x38       c45                           647
    x39       obj1                            1
    x39       c19                           912
    x39       c27                           948
    x39       c40                           692
    x39       c46                           786
    x40       obj1                            1
    x40       c7                            838
    x40       c43                           863
    x41       obj1                            1
    x41       c22                           777
    x41       c36                           789
    x41       c42                           196
    x42       obj1                            1
    x42       c9                            582
    x42       c18                           203
    x42       c38                           551
    x42       c40                           448
    x43       obj1                            1
    x43       c6                            296
    x43       c11                           805
    x43       c17                           852
    x43       c21                           665
    x43       c28                           999
    x43       c34                           472
    x43       c41                           424
    x43       c42                           300
    x43       c47                           339
    x44       obj1                            1
    x44       c1                            223
    x44       c5                            889
    x44       c10                           507
    x44       c13                           499
    x44       c15                           992
    x44       c24                           366
    x44       c37                           425
    x44       c44                           770
    x45       obj1                            1
    x45       c17                           947
    x45       c40                           902
    x45       c47                           507
    x46       obj1                            1
    x46       c3                            991
    x46       c7                            120
    x46       c8                            108
    x46       c22                           902
    x46       c50                           411
    x47       obj1                            1
    x47       c5                            225
    x47       c16                           994
    x47       c17                           477
    x47       c22                           793
    x47       c27                           940
    x47       c30                           654
    x48       obj1                            1
    x48       c7                            548
    x48       c12                           832
    x48       c14                           816
    x48       c25                           878
    x49       obj1                            1
    x49       c12                           334
    x49       c14                           273
    x49       c23                           579
    x49       c26                           989
    x49       c33                           200
    x49       c38                           217
    x50       obj1                            1
    x50       c11                           248
    x50       c14                           344
    x50       c15                           142
    x50       c16                           840
    x50       c32                           669
    x50       c43                           480
    MARK0001  'MARKER'                 'INTEND'
RHS
    rhs       c1                            408
    rhs       c2                            926
    rhs       c3                           1742
    rhs       c4                           1706
    rhs       c5                           1238
    rhs       c6                           1131
    rhs       c7                           1629
    rhs       c8                            447
    rhs       c9                            571
    rhs       c10                          2426
    rhs       c11                          1661
    rhs       c12                          1003
    rhs       c13                           667
    rhs       c14                          1188
    rhs       c15                          2144
    rhs       c16                          1954
    rhs       c17                          1893
    rhs       c18                           626
    rhs       c19                          1353
    rhs       c20                           889
    rhs       c21                          1180
    rhs       c22                          2484
    rhs       c23                          1644
    rhs       c24                          1417
    rhs       c25                          1466
    rhs       c26                          2309
    rhs       c27                          1235
    rhs       c28                          1206
    rhs       c29                          1263
    rhs       c30                           789
    rhs       c31                          1385
    rhs       c32                          1578
    rhs       c33                          1015
    rhs       c34                          1316
    rhs       c35                           588
    rhs       c36                           725
    rhs       c37                           742
    rhs       c38                          1475
    rhs       c39                          1057
    rhs       c40                          2191
    rhs       c41                          1763
    rhs       c42                          1701
    rhs       c43                          1760
    rhs       c44                          1344
    rhs       c45                           838
    rhs       c46                          1160
    rhs       c47                          1958
    rhs       c48                          1538
    rhs       c49                           717
    rhs       c50                          1340
BOUNDS
 LI bnd       x1        0
 LI bnd       x2        0
 LI bnd       x3        0
 LI bnd       x4        0
 LI bnd       x5        0
 LI bnd       x6        0
 LI bnd       x7        0
 LI bnd       x8        0
 LI bnd       x9        0
 LI bnd       x10       0
 LI bnd       x11       0
 LI bnd       x12       0
 LI bnd       x13       0
 LI bnd       x14       0
 LI bnd       x15       0
 LI bnd       x16       0
 LI bnd       x17       0
 LI bnd       x18       0
 LI bnd       x19       0
 LI bnd       x20       0
 LI bnd       x21       0
 LI bnd       x22       0
 LI bnd       x23       0
 LI bnd       x24       0
 LI bnd       x25       0
 LI bnd       x26       0
 LI bnd       x27       0
 LI bnd       x28       0
 LI bnd       x29       0
 LI bnd       x30       0
 LI bnd       x31       0
 LI bnd       x32       0
 LI bnd       x33       0
 LI bnd       x34       0
 LI bnd       x35       0
 LI bnd       x36       0
 LI bnd       x37       0
 LI bnd       x38       0
 LI bnd       x39       0
 LI bnd       x40       0
 LI bnd       x41       0
 LI bnd       x42       0
 LI bnd       x43       0
 LI bnd       x44       0
 LI bnd       x45       0
 LI bnd       x46       0
 LI bnd       x47       0
 LI bnd       x48       0
 LI bnd       x49       0
 LI bnd       x50       0
ENDATA
